treewidth/data/PoussinGraph.gr
p tw 15 39
1 2
1 8
1 10
1 11
1 12
2 8
2 12
2 13
8 9
8 10
8 13
8 14
9 10
9 11
9 14
9 15
9 6
10 11
11 12
11 15
11 3
12 13
12 3
12 4
13 14
13 4
13 5
14 5
14 6
15 3
15 6
15 7
3 4
3 7
4 5
4 7
5 6
5 7
6 7
