treewidth/data/PoussinGraph.td
c width = 6, time = 0.109533
s td 9 7 15
b 1 4 5 6 9 11 12 13
b 2 5 6 8 9 11 12 13
b 3 1 8 9 11 12 13
b 4 1 2 8 12 13
b 5 1 8 9 10 11
b 6 5 6 8 9 13 14
b 7 4 5 6 9 11 12 15
b 8 4 5 6 7 11 12 15
b 9 3 4 7 11 12 15
3 4
3 5
2 3
2 6
1 2
8 9
7 8
1 7
